





























































































68 18 45 52 
64 41 0 37 
61 5 39 
34 31 62 38 
57 67 13 60 
24 16 44 
46 42 65 
25 53 12 28 
70 23 35 66 
2 49 33 21 
8 74 17 50 
36 29 58 19 
22 47 63 
7 4 69 
59 32 71 
56 3 54 27 
51 6 15 
20 75 14 1 
76 43 9 73 
55 10 40 
26 30 11 72 48 
